p edge 40 181 5
v 7 3 5 7 9 10 19 27
v 10 1 8 14 15 20 23 24 29 30 33
v 9 11 12 13 22 26 28 31 35 39
v 8 4 6 16 21 32 37 38 40
v 6 2 17 18 25 34 36
e 1 2
e 1 3
e 1 8
e 1 9
e 1 11
e 1 13
e 1 21
e 1 31
e 1 32
e 1 33
e 1 35
e 2 4
e 2 7
e 2 11
e 2 12
e 2 13
e 2 22
e 2 30
e 2 31
e 2 33
e 2 34
e 2 35
e 3 11
e 3 14
e 3 15
e 3 16
e 3 17
e 3 22
e 3 25
e 3 33
e 3 34
e 3 36
e 4 7
e 4 10
e 4 20
e 4 21
e 4 27
e 4 33
e 4 37
e 5 6
e 5 7
e 5 11
e 5 16
e 5 21
e 5 26
e 5 33
e 5 34
e 5 35
e 6 11
e 6 18
e 6 23
e 6 28
e 7 16
e 7 19
e 7 23
e 7 35
e 7 40
e 8 11
e 8 13
e 8 16
e 8 17
e 8 19
e 8 22
e 8 37
e 9 10
e 9 15
e 9 23
e 9 25
e 9 29
e 9 34
e 9 38
e 10 11
e 10 16
e 10 18
e 10 19
e 10 20
e 10 28
e 10 32
e 10 40
e 11 14
e 11 19
e 11 33
e 11 38
e 11 39
e 12 13
e 12 17
e 12 21
e 12 29
e 12 35
e 12 38
e 13 17
e 13 22
e 13 30
e 13 32
e 13 35
e 13 38
e 13 40
e 14 16
e 14 24
e 14 25
e 14 26
e 14 27
e 14 30
e 14 31
e 15 18
e 15 35
e 15 36
e 15 38
e 16 20
e 16 24
e 16 33
e 16 34
e 16 37
e 16 40
e 17 27
e 17 33
e 17 35
e 17 40
e 18 23
e 18 27
e 18 29
e 18 35
e 18 36
e 18 38
e 18 39
e 19 24
e 19 26
e 19 27
e 19 32
e 19 34
e 19 39
e 19 40
e 20 21
e 20 28
e 20 33
e 21 29
e 21 36
e 21 38
e 22 36
e 23 29
e 23 37
e 24 30
e 24 33
e 24 40
e 25 30
e 25 32
e 26 29
e 26 36
e 26 40
e 27 28
e 27 29
e 27 32
e 27 34
e 27 35
e 27 36
e 27 38
e 28 30
e 28 32
e 28 33
e 28 38
e 28 40
e 29 32
e 29 33
e 29 34
e 30 36
e 31 35
e 32 34
e 32 35
e 33 35
e 33 36
e 33 38
e 33 39
e 33 40
e 35 36
e 35 38
e 35 40
e 36 37
e 36 38
e 36 39
e 37 38
e 37 39
